Instance name:    bar-n100-3
Authors:          PDPTW Solver
Date:             2025-11-20
Reference:        LNS with SA/RTR
Solution
Route 1 : 26 31 81 76 30 80 46 18 42 92 96 12 62 68
Route 2 : 36 23 73 1 51 10 49 99 86 60 34 41 2 52 84 16 66 91
Route 3 : 47 32 82 8 97 44 48 94 21 71 98 58 28 78 6 56
Route 4 : 39 35 89 11 4 61 38 88 9 59 3 20 85 70 54 14 53 15 65 64
Route 5 : 5 33 45 83 43 55 95 93 24 74 7 27 77 57
Route 6 : 13 40 90 63 19 50 69 37 25 75 100 29 87 22 79 72 17 67
